Route #1:
Route #2: 31 28 54 49
Route #3: 15 35 55 52
Route #4: 47 30 53 10 42 45 36 44
Route #5: 18
Route #6: 20 6 34 58 48 22 5 9 32 51 56 12 43
Route #7: 25 13 57 27 37 8 29 17 26 7 38 33
Route #8: 3 11 21 4 46
Route #9: 19 59 50 39 40 16
Route #10: 14 23 24 1 2 41

Cost: 1648.3970456535862
